
Gurobi 9.0.1 (linux64) logging started Thu Apr 30 05:57:59 2020

Gurobi Optimizer version 9.0.1 build v9.0.1rc0 (linux64)
Optimize a model with 2234 rows, 2120 columns and 20112 nonzeros
Model fingerprint: 0xb5f83f0c
Variable types: 0 continuous, 2120 integer (2106 binary)
Coefficient statistics:
  Matrix range     [1e+00, 7e+00]
  Objective range  [1e+00, 1e+02]
  Bounds range     [1e+00, 1e+00]
  RHS range        [1e+00, 1e+00]

User MIP start produced solution with objective 590 (0.00s)
Loaded user MIP start with objective 590

Presolve removed 1004 rows and 912 columns
Presolve time: 0.11s
Presolved: 1230 rows, 1208 columns, 11904 nonzeros
Variable types: 0 continuous, 1208 integer (1208 binary)

Root relaxation: objective 3.657631e+02, 755 iterations, 0.06 seconds

    Nodes    |    Current Node    |     Objective Bounds      |     Work
 Expl Unexpl |  Obj  Depth IntInf | Incumbent    BestBd   Gap | It/Node Time

     0     0  365.76310    0  289  590.00000  365.76310  38.0%     -    0s
     0     0  381.43442    0  293  590.00000  381.43442  35.4%     -    0s
     0     0  384.38424    0  291  590.00000  384.38424  34.9%     -    0s
     0     0  384.50412    0  279  590.00000  384.50412  34.8%     -    0s
     0     0  384.50783    0  287  590.00000  384.50783  34.8%     -    0s
     0     0  394.37410    0  284  590.00000  394.37410  33.2%     -    0s
     0     0  395.22508    0  268  590.00000  395.22508  33.0%     -    0s
     0     0  395.25467    0  272  590.00000  395.25467  33.0%     -    0s
     0     0  395.26932    0  268  590.00000  395.26932  33.0%     -    0s
     0     0  403.71790    0  300  590.00000  403.71790  31.6%     -    1s
     0     0  403.86145    0  299  590.00000  403.86145  31.5%     -    1s
     0     0  403.87468    0  298  590.00000  403.87468  31.5%     -    1s
     0     0  408.47648    0  313  590.00000  408.47648  30.8%     -    1s
     0     0  408.74149    0  314  590.00000  408.74149  30.7%     -    1s
     0     0  408.77611    0  315  590.00000  408.77611  30.7%     -    1s
     0     0  408.78853    0  316  590.00000  408.78853  30.7%     -    1s
     0     0  412.18480    0  316  590.00000  412.18480  30.1%     -    1s
     0     0  412.30668    0  320  590.00000  412.30668  30.1%     -    1s
     0     0  412.34712    0  322  590.00000  412.34712  30.1%     -    1s
     0     0  412.34792    0  322  590.00000  412.34792  30.1%     -    1s
     0     0  413.39346    0  306  590.00000  413.39346  29.9%     -    2s
     0     0  414.07320    0  311  590.00000  414.07320  29.8%     -    2s
     0     0  414.21568    0  317  590.00000  414.21568  29.8%     -    2s
     0     0  414.22256    0  319  590.00000  414.22256  29.8%     -    2s
     0     0  415.03563    0  304  590.00000  415.03563  29.7%     -    2s
     0     0  415.06817    0  316  590.00000  415.06817  29.6%     -    2s
     0     0  415.07082    0  317  590.00000  415.07082  29.6%     -    2s
     0     0  415.22973    0  312  590.00000  415.22973  29.6%     -    2s
     0     0  415.22973    0  310  590.00000  415.22973  29.6%     -    2s
     0     2  415.35857    0  310  590.00000  415.35857  29.6%     -    2s
H   54    54                     545.0000000  426.51084  21.7%   227    4s
    79    69  479.79730   12  202  545.00000  427.83698  21.5%   183    5s
H   81    68                     544.0000000  427.83698  21.4%   181    5s
H  108    80                     539.0000000  429.45295  20.3%   164    5s
H  411   168                     533.0000000  452.42111  15.1%   110    9s
   433   168     cutoff    5       533.00000  453.02050  15.0%   109   10s
   817   279     cutoff   33       533.00000  460.22973  13.7%  95.4   15s
  1142   355     cutoff   15       533.00000  466.68537  12.4%  97.6   20s
  1531   417  488.41038    7  310  533.00000  472.98223  11.3%  93.9   25s
  1547   430  472.98223   15  246  533.00000  472.98223  11.3%  95.8   30s
  1562   440  475.01249   22  243  533.00000  472.98223  11.3%  98.1   35s
  1711   482  479.10199   26  217  533.00000  472.98223  11.3%   103   40s
  1983   455  472.98223   17  231  533.00000  472.98223  11.3%   102   45s
  2255   422  508.01471   20  168  533.00000  472.98223  11.3%   101   50s
  2615   339  493.75980   22  209  533.00000  479.46180  10.0%  98.1   55s
  3011   296  525.83626   25  199  533.00000  485.99629  8.82%  95.3   60s
  3424   283     cutoff   28       533.00000  494.26667  7.27%  92.8   65s
  3997   129     cutoff   26       533.00000  513.36552  3.68%  87.7   70s

Cutting planes:
  Gomory: 1
  Cover: 1
  MIR: 18
  Flow cover: 5
  Inf proof: 12
  Zero half: 56
  RLT: 97

Explored 4226 nodes (361782 simplex iterations) in 71.17 seconds
Thread count was 1 (of 40 available processors)

Solution count 5: 533 539 544 ... 590

Optimal solution found (tolerance 1.00e-04)
Best objective 5.330000000000e+02, best bound 5.330000000000e+02, gap 0.0000%

User-callback calls 19956, time in user-callback 0.02 sec
